 ! ----------------------------------------------------------------------------
 ! Maximization problem - 28 variables, 2 constraints
 ! Initial process time : 0.00s (0.00s extraction + 0.00s propagation)
 !  . Log search space  : 32.4 (before), 32.4 (after)
 !  . Memory usage      : 335.7 kB (before), 335.7 kB (after)
 ! Using parallel search with 4 workers.
 ! ----------------------------------------------------------------------------
 !          Best Branches  Non-fixed    W       Branch decision
                        0         28                 -
 + New bound is 0.00000000160000
                        0         24    1   F        -
 + New bound is 0.000000000800000
 *  1.000000e-10        5  0.00s        1      (gap is 700.0%)
 ! ----------------------------------------------------------------------------
 ! Search completed, 1 solution found.
 ! Best objective         : 1e-10 (optimal - effective tol. is 1.000000e-09)
 ! Best bound             : 0.000000000800000
 ! Number of branches     : 5
 ! Number of fails        : 7
 ! Total memory usage     : 964.3 kB (919.9 kB CP Optimizer + 44.4 kB Concert)
 ! Time spent in solve    : 0.00s (0.00s engine + 0.00s extraction)
 ! Search speed (br. / s) : 500.0
 ! ----------------------------------------------------------------------------

